11665.0
[0, 1, 0, 0, 1, 0, 0, 1, 0, 1, 1, 0, 0, 1, 1, 1, 0, 0, 0, 0]
[7, 1, 10, 10, 1, 15, 4, 13, 14, 4, 15, 4, 1, 10, 13, 14, 15, 10, 4, 9, 14, 15, 15, 13, 9, 4, 7, 1, 1, 4, 13, 7, 13, 7, 1, 10, 1, 1, 1, 13, 10, 15, 15, 7, 9, 13, 14, 10, 4, 9]